unknown
(model
; cardinality of BoundSet is 2
(declare-sort BoundSet 0)
; rep: @uc_BoundSet_0
; rep: @uc_BoundSet_1
; cardinality of UnboundSet is 1
(declare-sort UnboundSet 0)
(declare-fun groundTerm_3 () UnboundSet)
(define-fun IsOnCellphone ((BOUND_VARIABLE_410 BoundSet)) Bool true)
(define-fun IsAboutToCrossTheRoad ((BOUND_VARIABLE_410 BoundSet)) Bool true)
(define-fun IsUpset ((BOUND_VARIABLE_410 BoundSet)) Bool false)
(define-fun IsCrying ((BOUND_VARIABLE_410 BoundSet)) Bool false)
(define-fun IsOnTheGround ((BOUND_VARIABLE_410 BoundSet)) Bool false)
)
sat
(model
; cardinality of BoundSet is 1
(declare-sort BoundSet 0)
; rep: @uc_BoundSet_0
; cardinality of UnboundSet is 1
(declare-sort UnboundSet 0)
(declare-fun groundTerm_5 () UnboundSet)
(define-fun IsOnCellphone ((BOUND_VARIABLE_449 BoundSet)) Bool true)
(define-fun IsAboutToCrossTheRoad ((BOUND_VARIABLE_449 BoundSet)) Bool true)
(define-fun IsUpset ((BOUND_VARIABLE_449 BoundSet)) Bool false)
(define-fun IsCrying ((BOUND_VARIABLE_449 BoundSet)) Bool true)
(define-fun IsOnTheGround ((BOUND_VARIABLE_449 BoundSet)) Bool false)
)
